c File: flat50_3_0.col
c
c SOURCE: Joseph Culberson (joe@cs.ualberta.ca)
c DESCRIPTION: Quasi-random coloring problem
c              generated with flatness = 0
c                             probability = 0.139
c                             known coloring = 3
c                             random seed = 1779
c              Creation Date:  Tue Jun  9 12:17:41 1998
c Maximum degree = 8 Minimum degree = 1
c p edge 50 115
c cnf created by edge2cnf
p cnf 150 545
-1 -2 0
-1 -3 0
-2 -3 0
1 2 3 0
-4 -5 0
-4 -6 0
-5 -6 0
4 5 6 0
-7 -8 0
-7 -9 0
-8 -9 0
7 8 9 0
-10 -11 0
-10 -12 0
-11 -12 0
10 11 12 0
-13 -14 0
-13 -15 0
-14 -15 0
13 14 15 0
-16 -17 0
-16 -18 0
-17 -18 0
16 17 18 0
-19 -20 0
-19 -21 0
-20 -21 0
19 20 21 0
-22 -23 0
-22 -24 0
-23 -24 0
22 23 24 0
-25 -26 0
-25 -27 0
-26 -27 0
25 26 27 0
-28 -29 0
-28 -30 0
-29 -30 0
28 29 30 0
-31 -32 0
-31 -33 0
-32 -33 0
31 32 33 0
-34 -35 0
-34 -36 0
-35 -36 0
34 35 36 0
-37 -38 0
-37 -39 0
-38 -39 0
37 38 39 0
-40 -41 0
-40 -42 0
-41 -42 0
40 41 42 0
-43 -44 0
-43 -45 0
-44 -45 0
43 44 45 0
-46 -47 0
-46 -48 0
-47 -48 0
46 47 48 0
-49 -50 0
-49 -51 0
-50 -51 0
49 50 51 0
-52 -53 0
-52 -54 0
-53 -54 0
52 53 54 0
-55 -56 0
-55 -57 0
-56 -57 0
55 56 57 0
-58 -59 0
-58 -60 0
-59 -60 0
58 59 60 0
-61 -62 0
-61 -63 0
-62 -63 0
61 62 63 0
-64 -65 0
-64 -66 0
-65 -66 0
64 65 66 0
-67 -68 0
-67 -69 0
-68 -69 0
67 68 69 0
-70 -71 0
-70 -72 0
-71 -72 0
70 71 72 0
-73 -74 0
-73 -75 0
-74 -75 0
73 74 75 0
-76 -77 0
-76 -78 0
-77 -78 0
76 77 78 0
-79 -80 0
-79 -81 0
-80 -81 0
79 80 81 0
-82 -83 0
-82 -84 0
-83 -84 0
82 83 84 0
-85 -86 0
-85 -87 0
-86 -87 0
85 86 87 0
-88 -89 0
-88 -90 0
-89 -90 0
88 89 90 0
-91 -92 0
-91 -93 0
-92 -93 0
91 92 93 0
-94 -95 0
-94 -96 0
-95 -96 0
94 95 96 0
-97 -98 0
-97 -99 0
-98 -99 0
97 98 99 0
-100 -101 0
-100 -102 0
-101 -102 0
100 101 102 0
-103 -104 0
-103 -105 0
-104 -105 0
103 104 105 0
-106 -107 0
-106 -108 0
-107 -108 0
106 107 108 0
-109 -110 0
-109 -111 0
-110 -111 0
109 110 111 0
-112 -113 0
-112 -114 0
-113 -114 0
112 113 114 0
-115 -116 0
-115 -117 0
-116 -117 0
115 116 117 0
-118 -119 0
-118 -120 0
-119 -120 0
118 119 120 0
-121 -122 0
-121 -123 0
-122 -123 0
121 122 123 0
-124 -125 0
-124 -126 0
-125 -126 0
124 125 126 0
-127 -128 0
-127 -129 0
-128 -129 0
127 128 129 0
-130 -131 0
-130 -132 0
-131 -132 0
130 131 132 0
-133 -134 0
-133 -135 0
-134 -135 0
133 134 135 0
-136 -137 0
-136 -138 0
-137 -138 0
136 137 138 0
-139 -140 0
-139 -141 0
-140 -141 0
139 140 141 0
-142 -143 0
-142 -144 0
-143 -144 0
142 143 144 0
-145 -146 0
-145 -147 0
-146 -147 0
145 146 147 0
-148 -149 0
-148 -150 0
-149 -150 0
148 149 150 0
-61 -1 0
-62 -2 0
-63 -3 0
-76 -1 0
-77 -2 0
-78 -3 0
-97 -1 0
-98 -2 0
-99 -3 0
-100 -1 0
-101 -2 0
-102 -3 0
-106 -1 0
-107 -2 0
-108 -3 0
-124 -1 0
-125 -2 0
-126 -3 0
-130 -1 0
-131 -2 0
-132 -3 0
-145 -1 0
-146 -2 0
-147 -3 0
-64 -4 0
-65 -5 0
-66 -6 0
-58 -7 0
-59 -8 0
-60 -9 0
-64 -7 0
-65 -8 0
-66 -9 0
-100 -7 0
-101 -8 0
-102 -9 0
-121 -7 0
-122 -8 0
-123 -9 0
-127 -7 0
-128 -8 0
-129 -9 0
-130 -7 0
-131 -8 0
-132 -9 0
-145 -7 0
-146 -8 0
-147 -9 0
-121 -10 0
-122 -11 0
-123 -12 0
-130 -10 0
-131 -11 0
-132 -12 0
-145 -10 0
-146 -11 0
-147 -12 0
-94 -13 0
-95 -14 0
-96 -15 0
-130 -13 0
-131 -14 0
-132 -15 0
-136 -13 0
-137 -14 0
-138 -15 0
-58 -16 0
-59 -17 0
-60 -18 0
-61 -16 0
-62 -17 0
-63 -18 0
-91 -16 0
-92 -17 0
-93 -18 0
-94 -16 0
-95 -17 0
-96 -18 0
-112 -16 0
-113 -17 0
-114 -18 0
-64 -19 0
-65 -20 0
-66 -21 0
-82 -19 0
-83 -20 0
-84 -21 0
-97 -19 0
-98 -20 0
-99 -21 0
-103 -19 0
-104 -20 0
-105 -21 0
-127 -19 0
-128 -20 0
-129 -21 0
-79 -22 0
-80 -23 0
-81 -24 0
-94 -22 0
-95 -23 0
-96 -24 0
-103 -22 0
-104 -23 0
-105 -24 0
-148 -22 0
-149 -23 0
-150 -24 0
-70 -25 0
-71 -26 0
-72 -27 0
-115 -25 0
-116 -26 0
-117 -27 0
-67 -28 0
-68 -29 0
-69 -30 0
-88 -28 0
-89 -29 0
-90 -30 0
-106 -28 0
-107 -29 0
-108 -30 0
-115 -28 0
-116 -29 0
-117 -30 0
-52 -31 0
-53 -32 0
-54 -33 0
-79 -31 0
-80 -32 0
-81 -33 0
-82 -31 0
-83 -32 0
-84 -33 0
-106 -31 0
-107 -32 0
-108 -33 0
-109 -31 0
-110 -32 0
-111 -33 0
-133 -31 0
-134 -32 0
-135 -33 0
-142 -31 0
-143 -32 0
-144 -33 0
-73 -34 0
-74 -35 0
-75 -36 0
-76 -34 0
-77 -35 0
-78 -36 0
-79 -34 0
-80 -35 0
-81 -36 0
-118 -34 0
-119 -35 0
-120 -36 0
-52 -37 0
-53 -38 0
-54 -39 0
-85 -37 0
-86 -38 0
-87 -39 0
-88 -37 0
-89 -38 0
-90 -39 0
-127 -37 0
-128 -38 0
-129 -39 0
-136 -37 0
-137 -38 0
-138 -39 0
-142 -37 0
-143 -38 0
-144 -39 0
-61 -40 0
-62 -41 0
-63 -42 0
-64 -40 0
-65 -41 0
-66 -42 0
-91 -40 0
-92 -41 0
-93 -42 0
-103 -40 0
-104 -41 0
-105 -42 0
-109 -40 0
-110 -41 0
-111 -42 0
-136 -40 0
-137 -41 0
-138 -42 0
-52 -43 0
-53 -44 0
-54 -45 0
-73 -43 0
-74 -44 0
-75 -45 0
-76 -43 0
-77 -44 0
-78 -45 0
-85 -43 0
-86 -44 0
-87 -45 0
-121 -43 0
-122 -44 0
-123 -45 0
-139 -43 0
-140 -44 0
-141 -45 0
-52 -46 0
-53 -47 0
-54 -48 0
-94 -46 0
-95 -47 0
-96 -48 0
-127 -46 0
-128 -47 0
-129 -48 0
-79 -49 0
-80 -50 0
-81 -51 0
-106 -49 0
-107 -50 0
-108 -51 0
-124 -49 0
-125 -50 0
-126 -51 0
-148 -49 0
-149 -50 0
-150 -51 0
-121 -52 0
-122 -53 0
-123 -54 0
-127 -52 0
-128 -53 0
-129 -54 0
-109 -55 0
-110 -56 0
-111 -57 0
-121 -55 0
-122 -56 0
-123 -57 0
-124 -55 0
-125 -56 0
-126 -57 0
-136 -55 0
-137 -56 0
-138 -57 0
-115 -58 0
-116 -59 0
-117 -60 0
-127 -58 0
-128 -59 0
-129 -60 0
-148 -58 0
-149 -59 0
-150 -60 0
-103 -61 0
-104 -62 0
-105 -63 0
-103 -64 0
-104 -65 0
-105 -66 0
-106 -64 0
-107 -65 0
-108 -66 0
-130 -67 0
-131 -68 0
-132 -69 0
-139 -67 0
-140 -68 0
-141 -69 0
-109 -70 0
-110 -71 0
-111 -72 0
-121 -70 0
-122 -71 0
-123 -72 0
-106 -73 0
-107 -74 0
-108 -75 0
-127 -73 0
-128 -74 0
-129 -75 0
-115 -76 0
-116 -77 0
-117 -78 0
-139 -76 0
-140 -77 0
-141 -78 0
-106 -79 0
-107 -80 0
-108 -81 0
-115 -79 0
-116 -80 0
-117 -81 0
-124 -79 0
-125 -80 0
-126 -81 0
-145 -79 0
-146 -80 0
-147 -81 0
-136 -82 0
-137 -83 0
-138 -84 0
-145 -82 0
-146 -83 0
-147 -84 0
-115 -85 0
-116 -86 0
-117 -87 0
-142 -85 0
-143 -86 0
-144 -87 0
-106 -91 0
-107 -92 0
-108 -93 0
-118 -91 0
-119 -92 0
-120 -93 0
-130 -91 0
-131 -92 0
-132 -93 0
-133 -91 0
-134 -92 0
-135 -93 0
-121 -94 0
-122 -95 0
-123 -96 0
-130 -94 0
-131 -95 0
-132 -96 0
-145 -94 0
-146 -95 0
-147 -96 0
-145 -97 0
-146 -98 0
-147 -99 0
-112 -100 0
-113 -101 0
-114 -102 0
